c Generated map
c Size: 13 * 13, weights in range: 1 to 10, walls: True, with ratio 0.1
c dim 2 of 4
c
p sp 169 253
c graph contains 169 nodes and 253 arcs
c
a 1 14 10
a 14 1 10
a 1 2 9
a 2 1 9
a 2 15 10
a 15 2 10
a 2 3 5
a 3 2 5
a 3 16 10
a 16 3 10
a 3 4 10
a 4 3 10
a 4 17 8
a 17 4 8
a 4 5 3
a 5 4 3
a 5 18 3
a 18 5 3
a 5 6 5
a 6 5 5
a 6 19 9
a 19 6 9
a 6 7 6
a 7 6 6
a 7 20 4
a 20 7 4
a 7 8 6
a 8 7 6
a 8 21 9
a 21 8 9
a 8 9 4
a 9 8 4
a 9 22 7
a 22 9 7
a 9 10 3
a 10 9 3
a 10 23 2
a 23 10 2
a 10 11 9
a 11 10 9
a 11 12 7
a 12 11 7
a 12 25 7
a 25 12 7
a 14 15 3
a 15 14 3
a 15 28 2
a 28 15 2
a 15 16 3
a 16 15 3
a 16 29 5
a 29 16 5
a 16 17 6
a 17 16 6
a 17 30 10
a 30 17 10
a 17 18 8
a 18 17 8
a 18 31 9
a 31 18 9
a 18 19 5
a 19 18 5
a 19 32 10
a 32 19 10
a 19 20 6
a 20 19 6
a 20 33 10
a 33 20 10
a 20 21 2
a 21 20 2
a 21 22 1
a 22 21 1
a 22 35 1
a 35 22 1
a 22 23 5
a 23 22 5
a 23 36 5
a 36 23 5
a 25 38 8
a 38 25 8
a 25 26 1
a 26 25 1
a 26 39 10
a 39 26 10
a 28 41 2
a 41 28 2
a 28 29 10
a 29 28 10
a 29 42 3
a 42 29 3
a 29 30 10
a 30 29 10
a 30 43 10
a 43 30 10
a 30 31 4
a 31 30 4
a 31 44 7
a 44 31 7
a 31 32 9
a 32 31 9
a 32 45 1
a 45 32 1
a 32 33 7
a 33 32 7
a 33 46 7
a 46 33 7
a 35 48 4
a 48 35 4
a 35 36 4
a 36 35 4
a 36 49 10
a 49 36 10
a 36 37 9
a 37 36 9
a 37 50 3
a 50 37 3
a 37 38 2
a 38 37 2
a 38 51 8
a 51 38 8
a 38 39 1
a 39 38 1
a 39 52 5
a 52 39 5
a 40 53 3
a 53 40 3
a 40 41 5
a 41 40 5
a 41 42 5
a 42 41 5
a 42 55 9
a 55 42 9
a 42 43 9
a 43 42 9
a 43 56 8
a 56 43 8
a 43 44 7
a 44 43 7
a 44 57 2
a 57 44 2
a 44 45 9
a 45 44 9
a 45 58 1
a 58 45 1
a 45 46 9
a 46 45 9
a 46 59 5
a 59 46 5
a 48 61 4
a 61 48 4
a 48 49 4
a 49 48 4
a 49 62 3
a 62 49 3
a 49 50 9
a 50 49 9
a 50 63 9
a 63 50 9
a 50 51 10
a 51 50 10
a 51 64 5
a 64 51 5
a 51 52 8
a 52 51 8
a 52 65 8
a 65 52 8
a 53 66 4
a 66 53 4
a 55 68 5
a 68 55 5
a 55 56 2
a 56 55 2
a 56 69 5
a 69 56 5
a 56 57 10
a 57 56 10
a 57 58 4
a 58 57 4
a 58 71 3
a 71 58 3
a 58 59 3
a 59 58 3
a 59 72 4
a 72 59 4
a 59 60 9
a 60 59 9
a 60 73 7
a 73 60 7
a 60 61 9
a 61 60 9
a 61 74 7
a 74 61 7
a 61 62 10
a 62 61 10
a 62 75 1
a 75 62 1
a 62 63 6
a 63 62 6
a 63 76 2
a 76 63 2
a 63 64 6
a 64 63 6
a 64 77 1
a 77 64 1
a 64 65 3
a 65 64 3
a 65 78 1
a 78 65 1
a 66 79 3
a 79 66 3
a 66 67 7
a 67 66 7
a 67 80 8
a 80 67 8
a 67 68 8
a 68 67 8
a 68 81 10
a 81 68 10
a 68 69 6
a 69 68 6
a 69 82 6
a 82 69 6
a 71 84 5
a 84 71 5
a 71 72 3
a 72 71 3
a 72 85 2
a 85 72 2
a 72 73 2
a 73 72 2
a 73 74 10
a 74 73 10
a 74 87 10
a 87 74 10
a 74 75 5
a 75 74 5
a 75 88 2
a 88 75 2
a 75 76 8
a 76 75 8
a 76 89 5
a 89 76 5
a 76 77 4
a 77 76 4
a 77 90 2
a 90 77 2
a 77 78 9
a 78 77 9
a 79 92 6
a 92 79 6
a 79 80 3
a 80 79 3
a 80 93 8
a 93 80 8
a 80 81 5
a 81 80 5
a 81 94 2
a 94 81 2
a 81 82 7
a 82 81 7
a 82 95 2
a 95 82 2
a 82 83 9
a 83 82 9
a 83 96 4
a 96 83 4
a 83 84 4
a 84 83 4
a 84 97 8
a 97 84 8
a 84 85 2
a 85 84 2
a 85 98 6
a 98 85 6
a 87 100 6
a 100 87 6
a 87 88 10
a 88 87 10
a 88 101 8
a 101 88 8
a 88 89 9
a 89 88 9
a 89 102 2
a 102 89 2
a 89 90 5
a 90 89 5
a 90 103 7
a 103 90 7
a 92 105 3
a 105 92 3
a 92 93 5
a 93 92 5
a 93 94 7
a 94 93 7
a 94 107 1
a 107 94 1
a 94 95 7
a 95 94 7
a 95 108 1
a 108 95 1
a 95 96 8
a 96 95 8
a 96 109 6
a 109 96 6
a 96 97 8
a 97 96 8
a 97 110 7
a 110 97 7
a 97 98 5
a 98 97 5
a 98 111 1
a 111 98 1
a 100 113 3
a 113 100 3
a 100 101 9
a 101 100 9
a 101 102 5
a 102 101 5
a 102 115 9
a 115 102 9
a 102 103 7
a 103 102 7
a 103 116 5
a 116 103 5
a 103 104 9
a 104 103 9
a 104 117 4
a 117 104 4
a 105 118 10
a 118 105 10
a 107 120 3
a 120 107 3
a 107 108 4
a 108 107 4
a 108 121 8
a 121 108 8
a 108 109 8
a 109 108 8
a 109 110 5
a 110 109 5
a 110 123 7
a 123 110 7
a 110 111 7
a 111 110 7
a 111 124 2
a 124 111 2
a 111 112 2
a 112 111 2
a 112 125 4
a 125 112 4
a 112 113 7
a 113 112 7
a 113 126 2
a 126 113 2
a 115 128 2
a 128 115 2
a 115 116 6
a 116 115 6
a 116 129 10
a 129 116 10
a 116 117 4
a 117 116 4
a 118 131 6
a 131 118 6
a 118 119 6
a 119 118 6
a 119 132 8
a 132 119 8
a 119 120 7
a 120 119 7
a 120 133 3
a 133 120 3
a 120 121 5
a 121 120 5
a 121 134 8
a 134 121 8
a 123 136 5
a 136 123 5
a 123 124 10
a 124 123 10
a 124 137 4
a 137 124 4
a 124 125 5
a 125 124 5
a 125 138 3
a 138 125 3
a 125 126 1
a 126 125 1
a 126 139 8
a 139 126 8
a 126 127 1
a 127 126 1
a 127 140 3
a 140 127 3
a 127 128 2
a 128 127 2
a 128 141 1
a 141 128 1
a 128 129 10
a 129 128 10
a 129 142 8
a 142 129 8
a 131 144 6
a 144 131 6
a 131 132 4
a 132 131 4
a 132 133 10
a 133 132 10
a 133 146 3
a 146 133 3
a 133 134 2
a 134 133 2
a 134 147 4
a 147 134 4
a 134 135 4
a 135 134 4
a 135 148 8
a 148 135 8
a 135 136 5
a 136 135 5
a 136 149 9
a 149 136 9
a 136 137 1
a 137 136 1
a 137 150 6
a 150 137 6
a 137 138 4
a 138 137 4
a 138 151 8
a 151 138 8
a 138 139 8
a 139 138 8
a 139 152 3
a 152 139 3
a 139 140 6
a 140 139 6
a 140 153 3
a 153 140 3
a 140 141 3
a 141 140 3
a 141 154 10
a 154 141 10
a 141 142 3
a 142 141 3
a 142 155 7
a 155 142 7
a 142 143 1
a 143 142 1
a 143 156 8
a 156 143 8
a 144 157 4
a 157 144 4
a 146 147 8
a 147 146 8
a 147 160 1
a 160 147 1
a 147 148 5
a 148 147 5
a 148 149 7
a 149 148 7
a 149 162 9
a 162 149 9
a 149 150 6
a 150 149 6
a 150 163 1
a 163 150 1
a 150 151 5
a 151 150 5
a 151 164 3
a 164 151 3
a 151 152 6
a 152 151 6
a 152 165 7
a 165 152 7
a 152 153 8
a 153 152 8
a 153 166 9
a 166 153 9
a 153 154 1
a 154 153 1
a 154 167 10
a 167 154 10
a 154 155 7
a 155 154 7
a 155 168 3
a 168 155 3
a 155 156 4
a 156 155 4
a 156 169 3
a 169 156 3
a 157 158 9
a 158 157 9
a 162 163 8
a 163 162 8
a 163 164 10
a 164 163 10
a 164 165 3
a 165 164 3
a 165 166 6
a 166 165 6
a 166 167 3
a 167 166 3
a 167 168 10
a 168 167 10
a 168 169 5
a 169 168 5
